Grasp exp. instance_n_25_m_10_id_4.lp tipoLifted 0 szPool 5 nIteration 20 alpha 1 
Academic license - for non-commercial use only
Read LP format model from file ../input/instancesGenerated/instance_n_25_m_10_id_4.lp
Reading time = 0.00 seconds
: 10 rows, 25 columns, 113 nonzeros
Optimize a model with 10 rows, 25 columns and 113 nonzeros
Variable types: 0 continuous, 25 integer (25 binary)
Coefficient statistics:
  Matrix range     [1e+00, 1e+01]
  Objective range  [1e+00, 1e+01]
  Bounds range     [1e+00, 1e+00]
  RHS range        [2e+01, 4e+01]
Found heuristic solution: objective 52.0000000

Explored 0 nodes (0 simplex iterations) in 0.00 seconds
Thread count was 1 (of 8 available processors)

Solution count 1: 52 
No other solutions better than 0

Solution limit reached
Best objective 5.200000000000e+01, best bound -, gap -
C_1:	 6.00 x_4  = 1.000000 + 7.00 x_5  = 0.000000 + 3.00 x_7  = 1.000000 + 8.00 x_8  = 0.000000 + 7.00 x_10  = 0.000000 + 8.00 x_17  = 0.251070 + 6.00 x_20  = 1.000000 + 6.00 x_22  = 1.000000 + 10.00 x_25  = 0.699144 <= 30.00
C_2:	 6.00 x_5  = 0.000000 + 7.00 x_8  = 0.000000 + 7.00 x_12  = 1.000000 + 1.00 x_13  = 0.000000 + 2.00 x_14  = 1.000000 + 2.00 x_17  = 0.251070 + 6.00 x_18  = 0.000000 + 4.00 x_21  = 0.466132 + 2.00 x_24  = 1.000000 + 7.00 x_25  = 0.699144 <= 22.00
C_3:	 7.00 x_4  = 1.000000 + 5.00 x_5  = 0.000000 + 4.00 x_8  = 0.000000 + 7.00 x_9  = 1.000000 + 4.00 x_15  = 0.500000 + 5.00 x_16  = 0.000000 + 10.00 x_18  = 0.000000 + 7.00 x_19  = 0.000000 + 10.00 x_22  = 1.000000 + 6.00 x_24  = 1.000000 <= 32.00
C_4:	 10.00 x_1  = 0.505918 + 5.00 x_4  = 1.000000 + 5.00 x_5  = 0.000000 + 7.00 x_6  = 0.458824 + 2.00 x_8  = 0.000000 + 7.00 x_9  = 1.000000 + 7.00 x_10  = 0.000000 + 6.00 x_11  = 1.000000 + 6.00 x_14  = 1.000000 + 3.00 x_18  = 0.000000 + 8.00 x_21  = 0.466132 + 2.00 x_22  = 1.000000 + 8.00 x_23  = 0.000000 <= 38.00
C_5:	 10.00 x_2  = 1.000000 + 1.00 x_4  = 1.000000 + 5.00 x_6  = 0.458824 + 4.00 x_7  = 1.000000 + 2.00 x_8  = 0.000000 + 9.00 x_9  = 1.000000 + 10.00 x_10  = 0.000000 + 3.00 x_13  = 0.000000 + 3.00 x_16  = 0.000000 + 10.00 x_17  = 0.251070 + 9.00 x_21  = 0.466132 <= 33.00
C_6:	 6.00 x_6  = 0.458824 + 2.00 x_7  = 1.000000 + 3.00 x_9  = 1.000000 + 8.00 x_12  = 1.000000 + 7.00 x_13  = 0.000000 + 5.00 x_16  = 0.000000 + 4.00 x_17  = 0.251070 + 2.00 x_19  = 0.000000 + 4.00 x_20  = 1.000000 + 1.00 x_23  = 0.000000 <= 21.00
C_7:	 1.00 x_5  = 0.000000 + 8.00 x_9  = 1.000000 + 10.00 x_10  = 0.000000 + 2.00 x_13  = 0.000000 + 3.00 x_14  = 1.000000 + 10.00 x_15  = 0.500000 + 9.00 x_16  = 0.000000 + 4.00 x_17  = 0.251070 + 5.00 x_22  = 1.000000 + 3.00 x_23  = 0.000000 <= 27.00
C_8:	 3.00 x_1  = 0.505918 + 6.00 x_2  = 1.000000 + 4.00 x_4  = 1.000000 + 2.00 x_5  = 0.000000 + 10.00 x_6  = 0.458824 + 6.00 x_8  = 0.000000 + 6.00 x_10  = 0.000000 + 4.00 x_12  = 1.000000 + 6.00 x_13  = 0.000000 + 6.00 x_14  = 1.000000 + 6.00 x_15  = 0.500000 + 3.00 x_16  = 0.000000 + 7.00 x_25  = 0.699144 <= 34.00
C_9:	 7.00 x_3  = 1.000000 + 5.00 x_5  = 0.000000 + 10.00 x_6  = 0.458824 + 8.00 x_8  = 0.000000 + 5.00 x_9  = 1.000000 + 3.00 x_11  = 1.000000 + 5.00 x_14  = 1.000000 + 8.00 x_15  = 0.500000 + 6.00 x_17  = 0.251070 + 2.00 x_20  = 1.000000 + 10.00 x_23  = 0.000000 <= 34.00
C_10:	 10.00 x_1  = 0.505918 + 2.00 x_2  = 1.000000 + 7.00 x_3  = 1.000000 + 5.00 x_4  = 1.000000 + 4.00 x_5  = 0.000000 + 8.00 x_7  = 1.000000 + 1.00 x_8  = 0.000000 + 5.00 x_11  = 1.000000 + 6.00 x_15  = 0.500000 + 10.00 x_16  = 0.000000 + 8.00 x_17  = 0.251070 + 10.00 x_18  = 0.000000 + 1.00 x_19  = 0.000000 + 2.00 x_21  = 0.466132 + 3.00 x_23  = 0.000000 + 6.00 x_24  = 1.000000 <= 44.00
Solution initial: 98.423815 
Number Constraints Used in Cover:10
GRASP Method!
Number cuts repeat: 0
value: 98.423815
Number Constraints Used in Cover:14
GRASP Method!
Number cuts repeat: 0
value: 98.423815
Number Constraints Used in Cover:24
GRASP Method!
Number cuts repeat: 0
value: 98.423815
Number Constraints Used in Cover:31
GRASP Method!
Number cuts repeat: 0
value: 98.423815
Number Constraints Used in Cover:41
GRASP Method!
Number cuts repeat: 0
value: 98.423815
Number Constraints Used in Cover:53
GRASP Method!
Number cuts repeat: 0
value: 98.423815
Number Constraints Used in Cover:60
GRASP Method!
Number cuts repeat: 0
value: 98.423815
Number Constraints Used in Cover:68
GRASP Method!
Number cuts repeat: 0
value: 98.423815
Number Constraints Used in Cover:75
GRASP Method!
Number cuts repeat: 0
value: 98.423815
Number Constraints Used in Cover:82
GRASP Method!
Number cuts repeat: 0
value: 98.423815
Number Constraints Used in Cover:83
GRASP Method!
Number cuts repeat: 0
value: 98.423815
Number Constraints Used in Cover:87
GRASP Method!
Number cuts repeat: 0
value: 98.423815
Number Constraints Used in Cover:94
GRASP Method!
Number cuts repeat: 0
value: 98.423815
Number Constraints Used in Cover:100
GRASP Method!
Number cuts repeat: 0
value: 98.423815
Number Constraints Used in Cover:108
GRASP Method!
Number cuts repeat: 0
value: 98.423815
Number Constraints Used in Cover:116
GRASP Method!
Number cuts repeat: 0
value: 98.423815
Number Constraints Used in Cover:117
GRASP Method!
Number cuts repeat: 0
value: 98.423815
Number Constraints Used in Cover:121
GRASP Method!
Number cuts repeat: 0
value: 98.423815
Number Constraints Used in Cover:127
GRASP Method!
Number cuts repeat: 0
value: 98.423815
Number Constraints Used in Cover:133
GRASP Method!
Number cuts repeat: 0
value: 98.423815
Number Constraints Used in Cover:135
GRASP Method!
Number cuts repeat: 0
value: 98.423815
Number Constraints Used in Cover:138
GRASP Method!
Number cuts repeat: 0
value: 98.423815
Number Constraints Used in Cover:152
GRASP Method!
Number cuts repeat: 0
value: 98.423815
Number Constraints Used in Cover:152
GRASP Method!
Number cuts repeat: 0
value: 98.423815
Number Constraints Used in Cover:157
GRASP Method!
Number cuts repeat: 0
value: 98.423815
Number Constraints Used in Cover:164
GRASP Method!
Number cuts repeat: 0
value: 98.423815
Number Constraints Used in Cover:167
GRASP Method!
Number cuts repeat: 0
value: 98.423815
Number Constraints Used in Cover:174
GRASP Method!
Number cuts repeat: 0
value: 98.423815
Number Constraints Used in Cover:184
GRASP Method!
Number cuts repeat: 0
value: 98.423815
Number Constraints Used in Cover:191
GRASP Method!
Number cuts repeat: 0
value: 98.423815
Number Constraints Used in Cover:195
GRASP Method!
Number cuts repeat: 0
value: 98.423815
Number Constraints Used in Cover:203
GRASP Method!
Number cuts repeat: 0
value: 98.423815
Number Constraints Used in Cover:209
GRASP Method!
Number cuts repeat: 0
value: 98.423815
Number Constraints Used in Cover:220
GRASP Method!
Number cuts repeat: 0
value: 98.423815
Number Constraints Used in Cover:226
GRASP Method!
Number cuts repeat: 0
value: 98.423815
Number Constraints Used in Cover:231
GRASP Method!
Number cuts repeat: 0
value: 98.423815
Number Constraints Used in Cover:234
GRASP Method!
Number cuts repeat: 0
value: 98.423815
Number Constraints Used in Cover:238
GRASP Method!
Number cuts repeat: 0
value: 98.423815
Number Constraints Used in Cover:240
GRASP Method!
Number cuts repeat: 0
value: 98.423815
Number Constraints Used in Cover:246
GRASP Method!
Number cuts repeat: 0
value: 98.423815
Number Constraints Used in Cover:247
GRASP Method!
Number cuts repeat: 0
value: 98.423815
Number Constraints Used in Cover:250
GRASP Method!
Number cuts repeat: 0
value: 98.423815
Number Constraints Used in Cover:254
GRASP Method!
Number cuts repeat: 0
value: 98.423815
Number Constraints Used in Cover:259
GRASP Method!
Number cuts repeat: 0
value: 98.423815
Number Constraints Used in Cover:261
GRASP Method!
Number cuts repeat: 0
value: 98.423815
Number Constraints Used in Cover:264
GRASP Method!
Number cuts repeat: 0
value: 98.423815
Number Constraints Used in Cover:269
GRASP Method!
Number cuts repeat: 0
value: 98.423815
Number Constraints Used in Cover:274
GRASP Method!
Number cuts repeat: 0
value: 98.423815
Number Constraints Used in Cover:278
GRASP Method!
Number cuts repeat: 0
value: 98.423815
Number Constraints Used in Cover:282
GRASP Method!
Number cuts repeat: 0
value: 98.423815
Number Constraints Used in Cover:283
GRASP Method!
Number cuts repeat: 0
value: 98.423815
Number Constraints Used in Cover:285
GRASP Method!
Number cuts repeat: 0
value: 98.423815
Number Constraints Used in Cover:287
GRASP Method!
Number cuts repeat: 0
value: 98.423815
Number Constraints Used in Cover:291
GRASP Method!
Number cuts repeat: 0
value: 98.423815
Number Constraints Used in Cover:291
GRASP Method!
Number cuts repeat: 0
value: 98.423815
Number Constraints Used in Cover:300
GRASP Method!
Number cuts repeat: 0
value: 98.423815
Number Constraints Used in Cover:303
GRASP Method!
Number cuts repeat: 0
value: 98.423815
Number Constraints Used in Cover:304
GRASP Method!
Number cuts repeat: 0
value: 98.423815
Number Constraints Used in Cover:306
GRASP Method!
Number cuts repeat: 0
value: 98.423815
Number Constraints Used in Cover:308
GRASP Method!
Number cuts repeat: 0
value: 98.423815
Number Constraints Used in Cover:313
GRASP Method!
Number cuts repeat: 0
value: 98.423815
Number Constraints Used in Cover:315
GRASP Method!
Number cuts repeat: 0
value: 98.423815
Number Constraints Used in Cover:318
GRASP Method!
Number cuts repeat: 0
value: 98.423815
Number Constraints Used in Cover:318
GRASP Method!
Number cuts repeat: 0
value: 98.423815
Number Constraints Used in Cover:320
GRASP Method!
Number cuts repeat: 0
value: 98.423815
Number Constraints Used in Cover:322
GRASP Method!
Number cuts repeat: 0
value: 98.423815
Number Constraints Used in Cover:323
GRASP Method!
Number cuts repeat: 0
value: 98.423815
Number Constraints Used in Cover:324
GRASP Method!
Number cuts repeat: 0
value: 98.423815
Number Constraints Used in Cover:324
GRASP Method!
Number cuts repeat: 0
value: 98.423815
Number Constraints Used in Cover:327
GRASP Method!
Number cuts repeat: 0
value: 98.423815
Number Constraints Used in Cover:329
GRASP Method!
Number cuts repeat: 0
value: 98.423815
Number Constraints Used in Cover:330
GRASP Method!
Number cuts repeat: 0
value: 98.423815
Number Constraints Used in Cover:330
GRASP Method!
Number cuts repeat: 0
value: 98.423815
Number Constraints Used in Cover:331
GRASP Method!
Number cuts repeat: 0
value: 98.423815
Number Constraints Used in Cover:331
GRASP Method!
Number cuts repeat: 0
value: 98.423815
Number Constraints Used in Cover:335
GRASP Method!
Number cuts repeat: 0
value: 98.423815
Number Constraints Used in Cover:337
GRASP Method!
Number cuts repeat: 0
value: 98.423815
Number Constraints Used in Cover:337
GRASP Method!
Number cuts repeat: 0
value: 98.423815
Number Constraints Used in Cover:337
GRASP Method!
Number cuts repeat: 0
value: 98.423815
Number Constraints Used in Cover:340
GRASP Method!
Number cuts repeat: 0
value: 98.423815
Number Constraints Used in Cover:342
GRASP Method!
Number cuts repeat: 0
value: 98.423815
Number Constraints Used in Cover:343
GRASP Method!
Number cuts repeat: 0
value: 98.423815
Number Constraints Used in Cover:345
GRASP Method!
Number cuts repeat: 0
value: 98.423815
Number Constraints Used in Cover:347
GRASP Method!
Number cuts repeat: 0
value: 98.423815
Number Constraints Used in Cover:350
GRASP Method!
Number cuts repeat: 0
value: 98.423815
Number Constraints Used in Cover:351
GRASP Method!
Number cuts repeat: 0
value: 98.423815
Number Constraints Used in Cover:351
GRASP Method!
Number cuts repeat: 0
value: 98.423815
Number Constraints Used in Cover:351
GRASP Method!
Number cuts repeat: 0
value: 98.423815
Number Constraints Used in Cover:352
GRASP Method!
Number cuts repeat: 0
value: 98.423815
Number Constraints Used in Cover:354
GRASP Method!
Number cuts repeat: 0
value: 98.423815
Number Constraints Used in Cover:357
GRASP Method!
Number cuts repeat: 0
value: 98.423815
Number Constraints Used in Cover:359
GRASP Method!
Number cuts repeat: 0
value: 98.423815
Number Constraints Used in Cover:360
GRASP Method!
Number cuts repeat: 0
value: 98.423815
Number Constraints Used in Cover:361
GRASP Method!
Number cuts repeat: 0
value: 98.423815
Number Constraints Used in Cover:361
GRASP Method!
Number cuts repeat: 0
value: 98.423815
Number Constraints Used in Cover:362
GRASP Method!
Number cuts repeat: 0
value: 98.423815
Number Constraints Used in Cover:363
GRASP Method!
Number cuts repeat: 0
value: 98.423815
Number Constraints Used in Cover:366
GRASP Method!
Number cuts repeat: 0
value: 98.423815
Number Constraints Used in Cover:368
GRASP Method!
Number cuts repeat: 0
value: 98.423815
Number Constraints Used in Cover:372
GRASP Method!
Number cuts repeat: 0
value: 98.423815
Number Constraints Used in Cover:376
GRASP Method!
Number cuts repeat: 0
value: 98.423815
Number Constraints Used in Cover:378
GRASP Method!
Number cuts repeat: 0
value: 98.423815
Number Constraints Used in Cover:379
GRASP Method!
Number cuts repeat: 0
value: 98.423815
Number Constraints Used in Cover:379
GRASP Method!
Number cuts repeat: 0
value: 98.423815
Number Constraints Used in Cover:379
GRASP Method!
Number cuts repeat: 0
value: 98.423815
Number Constraints Used in Cover:379
GRASP Method!
Number cuts repeat: 0
value: 98.423815
Number Constraints Used in Cover:379
GRASP Method!
Number cuts repeat: 0
value: 98.423815
Number Constraints Used in Cover:379
GRASP Method!
Number cuts repeat: 0
value: 98.423815
Number Constraints Used in Cover:379
GRASP Method!
Number cuts repeat: 0
value: 98.423815
Number Constraints Used in Cover:380
GRASP Method!
Number cuts repeat: 0
value: 98.423815
Number Constraints Used in Cover:382
GRASP Method!
Number cuts repeat: 0
value: 98.423815
Number Constraints Used in Cover:382
GRASP Method!
Number cuts repeat: 0
value: 98.423815
Number Constraints Used in Cover:382
GRASP Method!
Number cuts repeat: 0
value: 98.423815
Number Constraints Used in Cover:384
GRASP Method!
Number cuts repeat: 0
value: 98.423815
Number Constraints Used in Cover:387
GRASP Method!
Number cuts repeat: 0
value: 98.423815
Number Constraints Used in Cover:387
GRASP Method!
Number cuts repeat: 0
value: 98.423815
Number Constraints Used in Cover:388
GRASP Method!
Number cuts repeat: 0
value: 98.423815
Number Constraints Used in Cover:388
GRASP Method!
Number cuts repeat: 0
value: 98.423815
Number Constraints Used in Cover:390
GRASP Method!
Number cuts repeat: 0
value: 98.423815
Number Constraints Used in Cover:390
GRASP Method!
Number cuts repeat: 0
value: 98.423815
Number Constraints Used in Cover:390
GRASP Method!
Number cuts repeat: 0
value: 98.423815
Number Constraints Used in Cover:390
GRASP Method!
Number cuts repeat: 0
value: 98.423815
Number Constraints Used in Cover:395
GRASP Method!
Number cuts repeat: 0
value: 98.423815
Number Constraints Used in Cover:395
GRASP Method!
Number cuts repeat: 0
value: 98.423815
Number Constraints Used in Cover:396
GRASP Method!
Number cuts repeat: 0
value: 98.423815
Number Constraints Used in Cover:397
GRASP Method!
Number cuts repeat: 0
value: 98.423815
Number Constraints Used in Cover:398
GRASP Method!
Number cuts repeat: 0
value: 98.423815
Number Constraints Used in Cover:398
GRASP Method!
Number cuts repeat: 0
value: 98.423815
Number Constraints Used in Cover:398
GRASP Method!
Number cuts repeat: 0
value: 98.423815
Number Constraints Used in Cover:399
GRASP Method!
Number cuts repeat: 0
value: 98.423815
Number Constraints Used in Cover:401
GRASP Method!
Number cuts repeat: 0
value: 98.423815
Number Constraints Used in Cover:401
GRASP Method!
Number cuts repeat: 0
value: 98.423815
Number Constraints Used in Cover:401
GRASP Method!
Number cuts repeat: 0
value: 98.423815
Number Constraints Used in Cover:402
GRASP Method!
Number cuts repeat: 0
value: 98.423815
Number Constraints Used in Cover:404
GRASP Method!
Number cuts repeat: 0
value: 98.423815
Number Constraints Used in Cover:404
GRASP Method!
Number cuts repeat: 0
value: 98.423815
Number Constraints Used in Cover:407
GRASP Method!
Number cuts repeat: 0
value: 98.423815
Number Constraints Used in Cover:409
GRASP Method!
Number cuts repeat: 0
value: 98.423815
Number Constraints Used in Cover:409
GRASP Method!
Number cuts repeat: 0
value: 98.423815
Number Constraints Used in Cover:409
GRASP Method!
Number cuts repeat: 0
value: 98.423815
Number Constraints Used in Cover:412
GRASP Method!
Number cuts repeat: 0
value: 98.423815
Number Constraints Used in Cover:412
GRASP Method!
Number cuts repeat: 0
value: 98.423815
Number Constraints Used in Cover:412
GRASP Method!
Number cuts repeat: 0
value: 98.423815
Number Constraints Used in Cover:413
GRASP Method!
Number cuts repeat: 0
value: 98.423815
Number Constraints Used in Cover:416
GRASP Method!
Number cuts repeat: 0
value: 98.423815
Number Constraints Used in Cover:418
GRASP Method!
Number cuts repeat: 0
value: 98.423815
Number Constraints Used in Cover:418
GRASP Method!
Number cuts repeat: 0
value: 98.423815
Number Constraints Used in Cover:419
GRASP Method!
Number cuts repeat: 0
value: 98.423815
Number Constraints Used in Cover:419
GRASP Method!
Number cuts repeat: 0
value: 98.423815
Number Constraints Used in Cover:422
GRASP Method!
Number cuts repeat: 0
value: 98.423815
Number Constraints Used in Cover:423
GRASP Method!
Number cuts repeat: 0
value: 98.423815
Number Constraints Used in Cover:423
GRASP Method!
Number cuts repeat: 0
value: 98.423815
Number Constraints Used in Cover:423
GRASP Method!
Number cuts repeat: 0
value: 98.423815
Number Constraints Used in Cover:423
GRASP Method!
Number cuts repeat: 0
value: 98.423815
Number Constraints Used in Cover:423
GRASP Method!
Number cuts repeat: 0
value: 98.423815
Number Constraints Used in Cover:424
GRASP Method!
Number cuts repeat: 0
value: 98.423815
Number Constraints Used in Cover:424
GRASP Method!
Number cuts repeat: 0
value: 98.423815
Number Constraints Used in Cover:425
GRASP Method!
Number cuts repeat: 0
value: 98.423815
Number Constraints Used in Cover:425
GRASP Method!
Number cuts repeat: 0
value: 98.423815
Number Constraints Used in Cover:425
GRASP Method!
Number cuts repeat: 0
value: 98.423815
Number Constraints Used in Cover:428
GRASP Method!
Number cuts repeat: 0
value: 98.423815
Number Constraints Used in Cover:429
GRASP Method!
Number cuts repeat: 0
value: 98.423815
Number Constraints Used in Cover:429
GRASP Method!
Number cuts repeat: 0
value: 98.423815
Number Constraints Used in Cover:431
GRASP Method!
Number cuts repeat: 0
value: 98.423815
Number Constraints Used in Cover:431
GRASP Method!
Number cuts repeat: 0
value: 98.423815
Number Constraints Used in Cover:431
GRASP Method!
Number cuts repeat: 0
value: 98.423815
Number Constraints Used in Cover:432
GRASP Method!
Number cuts repeat: 0
value: 98.423815
Number Constraints Used in Cover:432
GRASP Method!
Number cuts repeat: 0
value: 98.423815
Number Constraints Used in Cover:432
GRASP Method!
Number cuts repeat: 0
value: 98.423815
Number Constraints Used in Cover:432
GRASP Method!
Number cuts repeat: 0
value: 98.423815
Number Constraints Used in Cover:433
GRASP Method!
Number cuts repeat: 0
value: 98.423815
Number Constraints Used in Cover:433
GRASP Method!
Number cuts repeat: 0
value: 98.423815
Number Constraints Used in Cover:433
GRASP Method!
Number cuts repeat: 0
value: 98.423815
Number Constraints Used in Cover:433
GRASP Method!
Number cuts repeat: 0
value: 98.423815
Number Constraints Used in Cover:433
GRASP Method!
Number cuts repeat: 0
value: 98.423815
Number Constraints Used in Cover:433
GRASP Method!
Number cuts repeat: 0
value: 98.423815
Number Constraints Used in Cover:433
GRASP Method!
Number cuts repeat: 0
value: 98.423815
Number Constraints Used in Cover:433
GRASP Method!
Number cuts repeat: 0
value: 98.423815
Number Constraints Used in Cover:433
GRASP Method!
Number cuts repeat: 0
value: 98.423815
Number Constraints Used in Cover:433
GRASP Method!
Number cuts repeat: 0
value: 98.423815
Number Constraints Used in Cover:434
GRASP Method!
Number cuts repeat: 0
value: 98.423815
Number Constraints Used in Cover:434
GRASP Method!
Number cuts repeat: 0
value: 98.423815
Number Constraints Used in Cover:434
GRASP Method!
Number cuts repeat: 0
value: 98.423815
Number Constraints Used in Cover:435
GRASP Method!
Number cuts repeat: 0
value: 98.423815
Number Constraints Used in Cover:435
GRASP Method!
Number cuts repeat: 0
value: 98.423815
Number Constraints Used in Cover:435
GRASP Method!
Number cuts repeat: 0
value: 98.423815
Number Constraints Used in Cover:436
GRASP Method!
Number cuts repeat: 0
value: 98.423815
Number Constraints Used in Cover:436
GRASP Method!
Number cuts repeat: 0
value: 98.423815
Number Constraints Used in Cover:436
GRASP Method!
Number cuts repeat: 0
value: 98.423815
Number Constraints Used in Cover:437
GRASP Method!
Number cuts repeat: 0
value: 98.423815
Number Constraints Used in Cover:440
GRASP Method!
Number cuts repeat: 0
value: 98.423815
Number Constraints Used in Cover:442
GRASP Method!
Number cuts repeat: 0
value: 98.423815
Number Constraints Used in Cover:442
GRASP Method!
Number cuts repeat: 0
value: 98.423815
Number Constraints Used in Cover:442
GRASP Method!
Number cuts repeat: 0
value: 98.423815
Number Constraints Used in Cover:442
GRASP Method!
Number cuts repeat: 0
value: 98.423815
Number Constraints Used in Cover:444
GRASP Method!
Number cuts repeat: 0
value: 98.423815
Number Constraints Used in Cover:444
GRASP Method!
Number cuts repeat: 0
value: 98.423815
Number Constraints Used in Cover:444
GRASP Method!
Number cuts repeat: 0
value: 98.423815
Number Constraints Used in Cover:444
GRASP Method!
Number cuts repeat: 0
value: 98.423815
Number Constraints Used in Cover:444
GRASP Method!
Number cuts repeat: 0
value: 98.423815
Number Constraints Used in Cover:445
GRASP Method!
Number cuts repeat: 0
value: 98.423815
Number Constraints Used in Cover:446
GRASP Method!
Number cuts repeat: 0
value: 98.423815
Number Constraints Used in Cover:446
GRASP Method!
Number cuts repeat: 0
value: 98.423815
Number Constraints Used in Cover:447
GRASP Method!
Number cuts repeat: 0
value: 98.423815
Number Constraints Used in Cover:447
GRASP Method!
Number cuts repeat: 0
value: 98.423815
Number Constraints Used in Cover:448
GRASP Method!
Number cuts repeat: 0
value: 98.423815
Number Constraints Used in Cover:448
GRASP Method!
Number cuts repeat: 0
value: 98.423815
Number Constraints Used in Cover:449
GRASP Method!
Number cuts repeat: 0
value: 98.423815
Number Constraints Used in Cover:454
GRASP Method!
Number cuts repeat: 0
value: 98.423815
Number Constraints Used in Cover:455
GRASP Method!
Number cuts repeat: 0
value: 98.423815
Number Constraints Used in Cover:455
GRASP Method!
Number cuts repeat: 0
value: 98.423815
Number Constraints Used in Cover:455
GRASP Method!
Number cuts repeat: 0
value: 98.423815
Number Constraints Used in Cover:457
GRASP Method!
Number cuts repeat: 0
value: 98.423815
Number Constraints Used in Cover:457
GRASP Method!
Number cuts repeat: 0
value: 98.423815
Number Constraints Used in Cover:457
GRASP Method!
Number cuts repeat: 0
value: 98.423815
Number Constraints Used in Cover:457
GRASP Method!
Number cuts repeat: 0
value: 98.423815
Number Constraints Used in Cover:458
GRASP Method!
Number cuts repeat: 0
value: 98.423815
Number Constraints Used in Cover:458
GRASP Method!
Number cuts repeat: 0
value: 98.423815
Number Constraints Used in Cover:458
GRASP Method!
Number cuts repeat: 0
value: 98.423815
Number Constraints Used in Cover:458
GRASP Method!
Number cuts repeat: 0
value: 98.423815
Number Constraints Used in Cover:458
GRASP Method!
Number cuts repeat: 0
value: 98.423815
Number Constraints Used in Cover:458
GRASP Method!
Number cuts repeat: 0
value: 98.423815
Number Constraints Used in Cover:458
GRASP Method!
Number cuts repeat: 0
value: 98.423815
Number Constraints Used in Cover:458
GRASP Method!
Number cuts repeat: 0
value: 98.423815
Number Constraints Used in Cover:458
GRASP Method!
Number cuts repeat: 0
value: 98.423815
Number Constraints Used in Cover:459
GRASP Method!
Number cuts repeat: 0
value: 98.423815
Number Constraints Used in Cover:459
GRASP Method!
Number cuts repeat: 0
value: 98.423815
Number Constraints Used in Cover:459
GRASP Method!
Number cuts repeat: 0
value: 98.423815
Number Constraints Used in Cover:459
GRASP Method!
Number cuts repeat: 0
value: 98.423815
Number Constraints Used in Cover:459
GRASP Method!
Number cuts repeat: 0
value: 98.423815
Number Constraints Used in Cover:460
GRASP Method!
Number cuts repeat: 0
value: 98.423815
Number Constraints Used in Cover:460
GRASP Method!
Number cuts repeat: 0
value: 98.423815
Number Constraints Used in Cover:460
GRASP Method!
Number cuts repeat: 0
value: 98.423815
Number Constraints Used in Cover:460
GRASP Method!
Number cuts repeat: 0
value: 98.423815
Number Constraints Used in Cover:460
GRASP Method!
Number cuts repeat: 0
value: 98.423815
Number Constraints Used in Cover:460
GRASP Method!
Number cuts repeat: 0
value: 98.423815
Number Constraints Used in Cover:460
GRASP Method!
Number cuts repeat: 0
value: 98.423815
Number Constraints Used in Cover:460
GRASP Method!
Number cuts repeat: 0
value: 98.423815
Number Constraints Used in Cover:460
GRASP Method!
Number cuts repeat: 0
value: 98.423815
Number Constraints Used in Cover:460
GRASP Method!
Number cuts repeat: 0
value: 98.423815
Number Constraints Used in Cover:460
GRASP Method!
Number cuts repeat: 0
value: 98.423815
Number Constraints Used in Cover:461
GRASP Method!
Number cuts repeat: 0
value: 98.423815
Number Constraints Used in Cover:462
GRASP Method!
Number cuts repeat: 0
value: 98.423815
Number Constraints Used in Cover:462
GRASP Method!
Number cuts repeat: 0
value: 98.423815
Number Constraints Used in Cover:462
GRASP Method!
Number cuts repeat: 0
value: 98.423815
Number Constraints Used in Cover:462
GRASP Method!
Number cuts repeat: 0
value: 98.423815
Number Constraints Used in Cover:462
GRASP Method!
Number cuts repeat: 0
value: 98.423815
Number Constraints Used in Cover:462
GRASP Method!
Number cuts repeat: 0
value: 98.423815
Number Constraints Used in Cover:462
GRASP Method!
Number cuts repeat: 0
value: 98.423815
Number Constraints Used in Cover:462
GRASP Method!
Number cuts repeat: 0
value: 98.423815
Number Constraints Used in Cover:462
GRASP Method!
Number cuts repeat: 0
value: 98.423815
Number Constraints Used in Cover:462
GRASP Method!
Number cuts repeat: 0
value: 98.423815
Number Constraints Used in Cover:463
GRASP Method!
Number cuts repeat: 0
value: 98.423815
Number Constraints Used in Cover:463
GRASP Method!
Number cuts repeat: 0
value: 98.423815
Number Constraints Used in Cover:463
GRASP Method!
Number cuts repeat: 0
value: 98.423815
Number Constraints Used in Cover:463
GRASP Method!
Number cuts repeat: 0
value: 98.423815
Number Constraints Used in Cover:463
GRASP Method!
Number cuts repeat: 0
value: 98.423815
Number Constraints Used in Cover:463
GRASP Method!
Number cuts repeat: 0
value: 98.423815
Number Constraints Used in Cover:463
GRASP Method!
Number cuts repeat: 0
value: 98.423815
Number Constraints Used in Cover:463
GRASP Method!
Number cuts repeat: 0
value: 98.423815
Number Constraints Used in Cover:463
GRASP Method!
Number cuts repeat: 0
value: 98.423815
Number Constraints Used in Cover:463
GRASP Method!
Number cuts repeat: 0
value: 98.423815
Number Constraints Used in Cover:463
GRASP Method!
Number cuts repeat: 0
value: 98.423815
Number Constraints Used in Cover:464
GRASP Method!
Number cuts repeat: 0
value: 98.423815
Number Constraints Used in Cover:464
GRASP Method!
Number cuts repeat: 0
value: 98.423815
Number Constraints Used in Cover:464
GRASP Method!
Number cuts repeat: 0
value: 98.217861
Number Constraints Used in Cover:465
GRASP Method!
Number cuts repeat: 0
value: 98.217861
Number Constraints Used in Cover:465
GRASP Method!
Number cuts repeat: 0
value: 97.126146
Number Constraints Used in Cover:467
GRASP Method!
Number cuts repeat: 0
value: 97.126146
Number Constraints Used in Cover:471
GRASP Method!
Number cuts repeat: 0
value: 97.126146
Number Constraints Used in Cover:473
GRASP Method!
Number cuts repeat: 0
value: 97.126146
Number Constraints Used in Cover:477
GRASP Method!
Number cuts repeat: 0
value: 97.126146
Number Constraints Used in Cover:477
GRASP Method!
Number cuts repeat: 0
value: 97.126146
Number Constraints Used in Cover:480
GRASP Method!
Number cuts repeat: 0
value: 97.126146
Number Constraints Used in Cover:482
GRASP Method!
Number cuts repeat: 0
value: 97.126146
Number Constraints Used in Cover:482
GRASP Method!
Number cuts repeat: 0
value: 97.126146
Number Constraints Used in Cover:484
GRASP Method!
Number cuts repeat: 0
value: 97.126146
Number Constraints Used in Cover:484
GRASP Method!
Number cuts repeat: 0
value: 97.126146
Number Constraints Used in Cover:487
GRASP Method!
Number cuts repeat: 0
value: 97.126146
Number Constraints Used in Cover:487
GRASP Method!
Number cuts repeat: 0
value: 97.126146
Number Constraints Used in Cover:489
GRASP Method!
Number cuts repeat: 0
value: 97.126146
Number Constraints Used in Cover:492
GRASP Method!
Number cuts repeat: 0
value: 97.126146
Number Constraints Used in Cover:493
GRASP Method!
Number cuts repeat: 0
value: 97.126146
Number Constraints Used in Cover:497
GRASP Method!
Number cuts repeat: 0
value: 97.126146
Number Constraints Used in Cover:498
GRASP Method!
Number cuts repeat: 0
value: 97.126146
Number Constraints Used in Cover:498
GRASP Method!
Number cuts repeat: 0
value: 97.126146
Number Constraints Used in Cover:500
GRASP Method!
Number cuts repeat: 0
value: 97.126146
Number Constraints Used in Cover:501
GRASP Method!
Number cuts repeat: 0
value: 97.126146
Number Constraints Used in Cover:503
GRASP Method!
Number cuts repeat: 0
value: 97.126146
Number Constraints Used in Cover:505
GRASP Method!
Number cuts repeat: 0
value: 97.126146
Number Constraints Used in Cover:506
GRASP Method!
Number cuts repeat: 0
value: 97.126146
Number Constraints Used in Cover:508
GRASP Method!
Number cuts repeat: 0
value: 97.126146
Number Constraints Used in Cover:509
GRASP Method!
Number cuts repeat: 0
value: 97.126146
Number Constraints Used in Cover:510
GRASP Method!
Number cuts repeat: 0
value: 97.126146
Number Constraints Used in Cover:513
GRASP Method!
Number cuts repeat: 0
value: 97.126146
Number Constraints Used in Cover:514
GRASP Method!
Number cuts repeat: 0
value: 97.126146
Number Constraints Used in Cover:515
GRASP Method!
Number cuts repeat: 0
value: 97.126146
Number Constraints Used in Cover:515
GRASP Method!
Number cuts repeat: 0
value: 96.904197
Number Constraints Used in Cover:522
GRASP Method!
Number cuts repeat: 0
value: 96.904197
Number Constraints Used in Cover:525
GRASP Method!
Number cuts repeat: 0
value: 96.904197
Number Constraints Used in Cover:526
GRASP Method!
Number cuts repeat: 0
value: 96.904197
Number Constraints Used in Cover:526
GRASP Method!
Number cuts repeat: 0
value: 96.904197
Number Constraints Used in Cover:527
GRASP Method!
Number cuts repeat: 0
value: 96.904197
Number Constraints Used in Cover:527
GRASP Method!
Number cuts repeat: 0
value: 96.904197
Number Constraints Used in Cover:527
GRASP Method!
Number cuts repeat: 0
value: 96.904197
Number Constraints Used in Cover:527
GRASP Method!
Number cuts repeat: 0
value: 96.904197
Number Constraints Used in Cover:527
GRASP Method!
Number cuts repeat: 0
value: 96.904197
Number Constraints Used in Cover:527
GRASP Method!
Number cuts repeat: 0
value: 96.904197
Number Constraints Used in Cover:527
GRASP Method!
Number cuts repeat: 0
value: 96.904197
Number Constraints Used in Cover:527
GRASP Method!
Number cuts repeat: 0
value: 96.904197
Number Constraints Used in Cover:527
GRASP Method!
Number cuts repeat: 0
value: 96.904197
Number Constraints Used in Cover:527
GRASP Method!
Number cuts repeat: 0
value: 96.904197
Number Constraints Used in Cover:527
GRASP Method!
Number cuts repeat: 0
value: 96.904197
Number Constraints Used in Cover:529
GRASP Method!
Number cuts repeat: 0
value: 96.904197
Number Constraints Used in Cover:530
GRASP Method!
Number cuts repeat: 0
value: 96.904197
Number Cuts Final: 521
